C208

VEHICLE
NUMBER     CAPACITY
  25       80

POST
   NO	 		      X				        Y 				      DEMAND		      READY		        DUE			        SERVICE                 NAME
  0             23.0752160451856      105.5330129161526       50              0              0               1440            10           Bưu Cục Mèo Vạc        
  1             23.0752160451856      105.53301291615261       10              0               240             10               Bưu Cục 02 Lê Quý Đôn
  2             23.0752160451856              105.53301291615261              30              0               240             10   Bưu Cục 2A Nguyễn Du            
  3             23.26080962821279              105.88320212513699              10              0               240             10       Bưu Cục Hoàng Su Phì        
  4             23.327552212201123              105.36932527954659              10              0               240             10       Bưu Cục Quảng Uyên        
  5             23.327552212201123              105.36932527954659              10              0               240             10          Bưu Cục Cao Bằng     
  6             16              42              20              0               240             10               
  7             58              70              20              0               240             10               
  8             34              60              20              0               240             10               
  9             28              70              10              0               240             10               